Route #1: 28 188 196 142 107 116 35 15 155 89 179 62 122 
Route #2: 104 64 137 198 164 174 115 26 140 18 57 131 113 169 192 84 27 53 56 185 180 37 123 121 124 55 85 88 135 1 111 157 34 176 114 68 
Route #3: 136 67 132 10 153 59 86 93 118 182 45 77 33 13 12 73 32 50 96 139 103 141 74 100 81 130 112 120 125 109 149 152 95 129 
Route #4: 144 42 6 110 184 148 29 2 143 138 126 128 48 145 25 90 193 20 71 127 5 194 190 80 158 101 91 106 159 83 14 36 
Route #5: 171 63 173 94 162 99 70 46 187 60 30 108 133 16 61 72 24 92 49 160 117 82 17 7 170 165 58 66 52 105 
Route #6: 178 167 40 39 119 38 166 102 98 76 8 78 134 177 22 191 150 43 69 151 97 31 181 172 75 87 163 168 154 21 51 
Route #7: 200 41 65 183 3 199 189 47 175 9 19 186 146 54 147 161 197 44 195 156 79 4 11 23 
Cost 1869.6
